
Welcome to IBM(R) ILOG(R) CPLEX(R) Interactive Optimizer 22.1.1.0
  with Simplex, Mixed Integer & Barrier Optimizers
5725-A06 5725-A29 5724-Y48 5724-Y49 5724-Y54 5724-Y55 5655-Y21
Copyright IBM Corp. 1988, 2022.  All Rights Reserved.

Type 'help' for a list of available commands.
Type 'help' followed by a command name for more
information on commands.

CPLEX> Selected objective sense:  MINIMIZE
Selected objective  name:  00000000
Selected RHS        name:  RHS1
Selected bound      name:  BOUND
Problem 'ee.mps' read.
Read time = 0.02 sec. (3.17 ticks)
CPLEX> New value for time limit in seconds: 7200
CPLEX> New value for parallel optimization mode: -1
CPLEX> New value for default parallel thread count: 40
CPLEX> New value for mixed integer optimality gap tolerance: 1e-13
CPLEX> Version identifier: 22.1.1.0 | 2022-11-28 | 9160aff4d
CPXPARAM_Threads                                 40
CPXPARAM_Parallel                                -1
CPXPARAM_TimeLimit                               7200
CPXPARAM_MIP_Tolerances_MIPGap                   1e-13
Found incumbent of value 0.000000 after 0.00 sec. (0.31 ticks)
Tried aggregator 2 times.
MIP Presolve eliminated 184 rows and 2745 columns.
MIP Presolve modified 6090 coefficients.
Aggregator did 713 substitutions.
Reduced MIP has 3636 rows, 7840 columns, and 28953 nonzeros.
Reduced MIP has 7840 binaries, 0 generals, 0 SOSs, and 0 indicators.
Presolve time = 0.07 sec. (69.13 ticks)
Probing time = 0.03 sec. (5.35 ticks)
Tried aggregator 1 time.
Detecting symmetries...
Reduced MIP has 3636 rows, 7840 columns, and 28953 nonzeros.
Reduced MIP has 7840 binaries, 0 generals, 0 SOSs, and 0 indicators.
Presolve time = 0.02 sec. (22.09 ticks)
Probing time = 0.02 sec. (5.13 ticks)
Clique table members: 18788.
MIP emphasis: balance optimality and feasibility.
MIP search method: dynamic search.
Parallel mode: opportunistic, using up to 40 threads.
Root relaxation solution time = 0.21 sec. (204.84 ticks)

        Nodes                                         Cuts/
   Node  Left     Objective  IInf  Best Integer    Best Bound    ItCnt     Gap

*     0+    0                            0.0000  -1.54000e+13              --- 
*     0+    0                      -3.60000e+12  -1.54000e+13           327.78%
*     0+    0                      -4.80000e+12  -1.54000e+13           220.83%
*     0+    0                      -6.00000e+12  -1.54000e+13           156.67%
*     0+    0                      -7.20000e+12  -1.54000e+13           113.89%
      0     0  -1.53900e+13   145  -7.20000e+12  -1.53900e+13     3248  113.75%
*     0+    0                      -1.53900e+13  -1.53900e+13             0.00%
      0     0  -1.53900e+13   213  -1.53900e+13     Cuts: 108     4057    0.00%
*     0+    0                      -1.53900e+13  -1.53900e+13             0.00%
      0     0  -1.53900e+13   209  -1.53900e+13      Cuts: 68     4540    0.00%
      0     0  -1.53900e+13   244  -1.53900e+13      Cuts: 71     4681    0.00%
*     0+    0                      -1.53900e+13  -1.53900e+13             0.00%
*     0+    0                      -1.53900e+13  -1.53900e+13             0.00%
      0    10        cutoff        -1.53900e+13  -1.53900e+13     8695    0.00%
Elapsed time = 3.62 sec. (1725.71 ticks, tree = 0.02 MB, solutions = 12)
    148    67  -1.53900e+13   164  -1.53900e+13  -1.53900e+13    32762    0.00%
    409    56  -1.53900e+13   189  -1.53900e+13  -1.53900e+13    57407    0.00%
    773    55        cutoff        -1.53900e+13  -1.53900e+13    92204    0.00%
   1042    62  -1.53900e+13    44  -1.53900e+13  -1.53900e+13   170491    0.00%
   1344    34        cutoff        -1.53900e+13  -1.53900e+13   120753    0.00%
   1630    24  -1.53900e+13   154  -1.53900e+13  -1.53900e+13   206892    0.00%
   1971    32    infeasible        -1.53900e+13  -1.53900e+13   256801    0.00%
   2370    29  -1.53900e+13   175  -1.53900e+13  -1.53900e+13   245532    0.00%
   2672    27  -1.53900e+13   142  -1.53900e+13  -1.53900e+13   280879    0.00%
   3068    41  -1.53900e+13   122  -1.53900e+13  -1.53900e+13   349349    0.00%
Elapsed time = 9.42 sec. (4835.94 ticks, tree = 1.12 MB, solutions = 12)

GUB cover cuts applied:  11
Clique cuts applied:  34
Cover cuts applied:  792
Flow cuts applied:  9
Mixed integer rounding cuts applied:  20
Zero-half cuts applied:  15
Lift and project cuts applied:  1
Gomory fractional cuts applied:  34

Root node processing (before b&c):
  Real time             =    2.13 sec. (1713.75 ticks)
Parallel b&c, 40 threads:
  Real time             =    7.34 sec. (3856.59 ticks)
  Sync time (average)   =    3.66 sec.
  Wait time (average)   =    0.00 sec.
                          ------------
Total (root+branch&cut) =    9.46 sec. (5570.34 ticks)

Solution pool: 12 solutions saved.

MIP - Integer optimal solution:  Objective = -1.5389999389e+13
Solution time =    9.60 sec.  Iterations = 430730  Nodes = 3111
Deterministic time = 5570.37 ticks  (580.12 ticks/sec)

CPLEX> Solution 'p13' written to file 'ee.sol'.
CPLEX> 